Number of variables: 42588
Number of constraints: 28632
Constraints density: 8.335386180508368e-05
Maximum factor: 8822.0
Minimum factor: -0.35
118.194580078125ms cplex
5003.83996963501ms TIMEOUT_EXCEPTION glpk
5003.871440887451ms TIMEOUT_EXCEPTION lp_solve
1270.3392505645752ms clp
-0.0 Value of objective function EXCEPTION [cplex]
-0.0 Value of objective function EXCEPTION [lp_solve]
-10257395000.0 Value of objective function [clp]
